(declare-const |param0':227| Int)
(declare-const |return':226| Int)
(assert (and (<= (+ |param0':227| -10) 0)
               (or (< (+ |return':226| -55) 0) (< (+ (- |return':226|) 55) 0))))
(check-sat)
